c preprocessed version of DyckGraph, 32 vertices, 48 edges
p td 32 48
0 1
0 7
0 8
1 2
1 9
10 17
10 19
11 18
11 20
12 19
12 21
13 20
13 22
14 21
14 23
15 16
15 22
16 24
17 25
18 26
19 27
2 10
2 3
20 28
21 29
22 30
23 31
24 27
24 29
25 28
25 30
26 29
26 31
27 30
28 31
3 11
3 4
4 12
4 5
5 13
5 6
6 14
6 7
7 15
8 17
8 23
9 16
9 18
